c ---- [ banner ] ------------------------------------------------------------
c
c Kissat SAT Solver
c 
c Copyright (c) 2021-2024 Armin Biere University of Freiburg
c Copyright (c) 2019-2021 Armin Biere Johannes Kepler University Linz
c 
c Version 4.0.1 43f02cf3e992cb44653b35e5cb26f93281552ae0
c gcc (Ubuntu 13.2.0-23ubuntu4) 13.2.0 -W -Wall -O3 -DNDEBUG
c Thu Sep 12 12:27:46 CEST 2024 Linux abryzen9 6.8.0-41-generic x86_64
c
c ---- [ parsing ] -----------------------------------------------------------
c
c opened and reading DIMACS file:
c
c   /data/artifact/AMulet2.0_artifact/exp4/cnf_dc2_64/64_64_U_SP_AR_SE_GenMul_dc2.cnf
c
c parsed 'p cnf 28370 124566' header
c closing input after reading 2478127 bytes (2 MB)
c finished parsing after 0.03 seconds
c
c ---- [ options ] -----------------------------------------------------------
c
c --stable=0                       (different from default '1')
c
c ---- [ solving ] -----------------------------------------------------------
c
c  seconds switched rate     size/glue tier1  binary          remaining
c         MB reductions conflicts size  tier2    irredundant
c          level restarts redundant glue  trail          variables
c
c *  0.03 10 0 0 0  0 0   0   0 0.0 0 0 0 0 0% 8905 115659 28367 100%
c (  0.07 13 0 0 0  0 0   0   0 0.0 0 0 0 0 0% 8905 115659 28367 100%
c .  0.08 13 0 0 0  0 0   0   0 0.0 0 0 0 0 0% 8901 115659 28367 100%
c e  0.43 23 0 0 0  0 0   0   0 0.0 0 0 0 0 0% 8444 115883 20280 71%
c )  0.43 23 0 0 0  0 0   0   0 0.0 0 0 0 0 0% 8444 115883 20280 71%
c {  0.47 23 0 0 0  0 0   0   0 0.0 0 0 2 6 0% 8444 115883 20280 71%
c -  0.56 23 338 0 1 53 16 1000 886 1.8 8 4 3 11 26% 8451 115883 20280 71%
c -  0.68 23 227 0 2 213 19 2001 1721 1.9 9 5 3 10 27% 8455 115883 20280 71%
c u  0.79 23 198 0 2 355 20 2505 1910 1.9 9 5 3 10 25% 8461 115883 20280 71%
c v  0.81 23 198 0 2 355 20 2505 1856 1.9 9 5 3 10 25% 8461 115883 20280 71%
c w  0.82 23 198 0 2 355 20 2505 1856 1.9 9 5 3 10 25% 8461 115883 20280 71%
c -  1.05 23 166 0 3 631 22 3416 2375 1.9 10 5 3 11 23% 8471 115883 20280 71%
c -  1.41 25 142 0 4 1062 23 5149 3484 1.9 11 6 3 11 22% 8490 115883 20280 71%
c -  1.82 25 132 0 5 1427 23 7151 4632 1.9 12 6 3 12 22% 8510 115883 20280 71%
c u  2.06 25 133 0 5 1491 23 7715 4216 1.9 12 6 3 12 23% 8539 115883 20280 71%
c v  2.12 25 133 0 5 1491 23 7715 4003 1.9 12 6 3 12 23% 8539 115883 20280 71%
c w  2.14 25 133 0 5 1491 23 7715 4003 1.9 12 6 3 12 23% 8539 115883 20280 71%
c =  2.27 25 133 0 5 1491 23 7715 4003 1.9 12 6 3 12 23% 10055 115851 19522 69%
c d  2.27 25 133 0 5 1491 23 7715 3990 1.9 12 6 3 12 23% 8539 115851 19522 69%
c t  2.29 25 133 0 5 1491 23 7715 3990 1.9 12 6 3 12 23% 8522 115851 19522 69%
c
c  seconds   switched    rate       size/glue tier1     binary          remaining
c         MB  reductions  conflicts       size  tier2      irredundant
c           level  restarts    redundant    glue    trail          variables
c
c f  2.33 24 133 0 5 1491 23 7715 3990 1.9 12 6 3 12 23% 8548 115781 19557 69%
c u  2.39 24 133 0 5 1491 23 7715 3839 1.9 12 6 3 12 23% 8550 115781 19557 69%
c v  2.43 24 133 0 5 1491 23 7715 3751 1.9 12 6 3 12 23% 8550 115781 19557 69%
c w  2.45 24 133 0 5 1491 23 7715 3751 1.9 12 6 3 12 23% 8550 115781 19557 69%
c x  2.48 24 133 0 5 1491 23 7715 3751 1.9 12 6 3 12 23% 8550 115757 19557 69%
c =  2.57 24 133 0 5 1491 23 7715 3751 1.9 12 6 3 12 23% 10760 115691 18448 65%
c d  2.58 24 133 0 5 1491 23 7715 3747 1.9 12 6 3 12 23% 8550 115691 18448 65%
c t  2.59 24 133 0 5 1491 23 7715 3747 1.9 12 6 3 12 23% 8526 115691 18448 65%
c f  2.62 24 133 0 5 1491 23 7715 3747 1.9 12 6 3 12 23% 8550 115611 18488 65%
c -  2.80 24 126 0 6 1686 22 9387 4546 2.0 12 6 3 11 22% 8568 115611 18488 65%
c o  2.87 24 124 0 6 1747 21 10021 5162 2.0 12 6 3 11 22% 8574 115611 18488 65%
c -  3.13 24 118 0 7 2014 21 11836 5859 2.0 13 6 3 11 22% 8590 115611 18488 65%
c s  3.31 24 116 0 7 2167 21 12520 6516 2.0 13 6 3 11 21% 8599 102799 18488 65%
c e  3.41 24 116 0 7 2167 21 12520 6516 2.0 13 6 3 11 21% 8517 102865 18406 65%
c s  3.41 24 116 0 7 2167 21 12520 6516 2.0 13 6 3 11 21% 8517 102837 18406 65%
c e  3.42 24 116 0 7 2167 21 12520 6516 2.0 13 6 3 11 21% 8504 102826 18387 65%
c ^  3.42 24 116 0 7 2167 21 12520 6516 2.0 13 6 3 11 21% 8504 102826 18387 65%
c -  3.62 24 112 0 8 2419 20 14481 7092 2.0 13 6 3 10 21% 8536 102826 18387 65%
c d  3.75 24 110 0 8 2634 20 15803 8323 2.0 13 7 3 10 21% 8543 102826 18385 65%
c u  3.79 24 110 0 8 2634 20 15803 7618 2.0 13 7 3 10 21% 8623 102826 18385 65%
c
c  seconds   switched    rate        size/glue tier1     binary          remaining
c         MB  reductions   conflicts       size  tier2      irredundant
c           level  restarts     redundant    glue    trail          variables
c
c v  3.82 24 110 0 8 2634 20 15803 7316 2.0 13 7 3 10 21% 8628 102826 18385 65%
c w  3.83 24 110 0 8 2634 20 15803 7314 2.0 13 7 3 10 21% 8628 102826 18385 65%
c =  3.95 24 110 0 8 2634 20 15803 7314 2.0 13 7 3 10 21% 11064 102762 17163 60%
c d  3.96 24 110 0 8 2634 20 15803 7216 2.0 13 7 3 10 21% 8624 102762 17163 60%
c t  3.99 24 110 0 8 2634 20 15803 7216 2.0 13 7 3 10 21% 8590 102762 17163 60%
c c  4.09 24 110 0 8 2634 20 15803 7216 2.0 13 7 3 10 21% 8603 102693 17154 60%
c d  4.10 24 110 0 8 2634 20 15803 7216 2.0 13 7 3 10 21% 8585 102693 17154 60%
c u  4.16 24 110 0 8 2634 20 15803 6591 2.0 13 7 3 10 21% 8589 102693 17154 60%
c v  4.21 24 110 0 8 2634 20 15803 6375 2.0 13 7 3 10 21% 8589 102693 17154 60%
c w  4.23 24 110 0 8 2634 20 15803 6373 2.0 13 7 3 10 21% 8589 102693 17154 60%
c =  4.35 24 110 0 8 2634 20 15803 6373 2.0 13 7 3 10 21% 10995 102659 15948 56%
c d  4.36 24 110 0 8 2634 20 15803 6372 2.0 13 7 3 10 21% 8589 102659 15948 56%
c t  4.38 24 110 0 8 2634 20 15803 6372 2.0 13 7 3 10 21% 8571 102659 15948 56%
c f  4.41 24 110 0 8 2634 20 15803 6372 2.0 13 7 3 10 21% 8575 102651 15950 56%
c -  4.58 24 109 0 9 2799 19 17309 6422 2.0 13 7 2 10 21% 8586 102651 15950 56%
c o  4.86 24 108 0 9 3116 19 20033 9021 2.0 13 7 2 10 21% 8619 102651 15950 56%
c -  4.92 24 107 0 10 3172 19 20310 7739 2.0 13 7 2 10 21% 8627 102651 15950 56%
c -  5.17 24 106 0 11 3409 18 23472 9093 2.0 13 7 2 9 21% 8650 102651 15950 56%
c s  5.29 24 104 0 11 3606 17 25025 10598 2.0 13 7 2 9 21% 8666 85806 15950 56%
c e  5.34 24 104 0 11 3606 17 25025 10598 2.0 13 7 2 9 21% 8641 85793 15929 56%
c
c  seconds   switched     rate         size/glue tier1    binary         remaining
c         MB   reductions   conflicts        size  tier2     irredundant
c           level   restarts      redundant    glue   trail         variables
c
c s  5.34 24 104 0 11 3606 17 25025 10598 2.0 13 7 2 9 21% 8641 85781 15929 56%
c e  5.34 24 104 0 11 3606 17 25025 10598 2.0 13 7 2 9 21% 8639 85782 15927 56%
c ^  5.34 24 104 0 11 3606 17 25025 10598 2.0 13 7 2 9 21% 8639 85782 15927 56%
c -  5.51 24 102 0 12 3904 17 26789 10212 2.0 14 7 2 9 21% 8658 85782 15927 56%
c u  5.55 24 102 0 12 3915 17 26933 9719 2.0 14 7 2 9 21% 8725 85782 15927 56%
c v  5.57 24 102 0 12 3915 17 26933 9417 2.0 14 7 2 9 21% 8727 85782 15927 56%
c w  5.58 24 102 0 12 3915 17 26933 9417 2.0 14 7 2 9 21% 8727 85782 15927 56%
c x  5.61 24 102 0 12 3915 17 26933 9417 2.0 14 7 2 9 21% 8727 85764 15927 56%
c =  5.71 24 102 0 12 3915 17 26933 9417 2.0 14 7 2 9 21% 11497 85692 14537 51%
c d  5.71 24 102 0 12 3915 17 26933 9349 2.0 14 7 2 9 21% 8718 85692 14537 51%
c t  5.73 24 102 0 12 3915 17 26933 9349 2.0 14 7 2 9 21% 8694 85692 14537 51%
c u  5.80 24 102 0 12 3915 17 26933 8798 2.0 14 7 2 9 21% 8689 85692 14537 51%
c v  5.83 24 102 0 12 3915 17 26933 8431 2.0 14 7 2 9 21% 8690 85692 14537 51%
c w  5.83 24 102 0 12 3915 17 26933 8428 2.0 14 7 2 9 21% 8690 85692 14537 51%
c =  5.93 24 102 0 12 3915 17 26933 8428 2.0 14 7 2 9 21% 11420 85622 13167 46%
c d  5.94 24 102 0 12 3915 17 26933 8428 2.0 14 7 2 9 21% 8692 85622 13167 46%
c t  5.95 24 102 0 12 3915 17 26933 8428 2.0 14 7 2 9 21% 8666 85622 13167 46%
c -  6.32 24 102 0 13 4239 17 30253 9752 2.0 14 7 2 9 22% 8669 85622 13167 46%
c -  6.62 24 100 0 14 4618 16 33858 11200 2.0 14 7 2 9 22% 8697 85622 13167 46%
c -  6.83 24 100 0 15 4904 16 37599 12369 2.0 14 7 2 8 23% 8750 85622 13167 46%
c
c  seconds  switched     rate         size/glue tier1    binary         remaining
c         MB  reductions   conflicts        size  tier2     irredundant
c          level   restarts      redundant    glue   trail         variables
c
c o  7.01 24 99 0 15 5209 16 40033 14724 2.0 14 7 2 8 23% 8774 85622 13167 46%
c d  7.07 24 99 0 15 5283 15 41260 15728 2.1 14 7 2 8 23% 8761 85621 13149 46%
c u  7.12 24 99 0 15 5283 15 41260 14774 2.1 14 7 2 8 23% 8810 85621 13149 46%
c v  7.16 24 99 0 15 5283 15 41260 14277 2.1 14 7 2 8 23% 8811 85621 13149 46%
c w  7.18 24 99 0 15 5283 15 41260 14274 2.1 14 7 2 8 23% 8811 85621 13149 46%
c =  7.25 24 99 0 15 5283 15 41260 14274 2.1 14 7 2 8 23% 10685 85376 12172 43%
c }  7.25 24 99 0 15 5283 15 41260 14274 2.1 14 7 2 8 23% 10685 85376 13109 46%
c 0  7.25 24 99 0 15 5283 15 41260 14274 2.1 14 7 2 8 23% 10685 85376 13109 46%
c
c ---- [ result ] ------------------------------------------------------------
c
s UNSATISFIABLE
c
c ---- [ profiling ] ---------------------------------------------------------
c
c           4.41   60.88 %  search
c           4.41   60.88 %  focused
c           2.37   32.67 %  simplify
c           2.33   32.14 %  probe
c           0.78   10.75 %  sweep
c           0.75   10.31 %  vivify
c           0.37    5.07 %  preprocess
c           0.33    4.51 %  factor
c           0.24    3.33 %  eliminate
c           0.21    2.92 %  substitute
c           0.19    2.58 %  congruence
c           0.15    2.14 %  fastel
c           0.08    1.12 %  reduce
c           0.07    0.93 %  lucky
c           0.06    0.80 %  subsume
c           0.05    0.66 %  transitive
c           0.03    0.44 %  parse
c           0.03    0.40 %  backbone
c =============================================
c           7.25  100.00 %  total
c
c ---- [ statistics ] --------------------------------------------------------
c
c chronological:                          372                1 %  conflicts
c conflicts:                            41260             5692.48 per second
c congruent:                                9                0 %  variables
c decisions:                           639675               15.50 per conflict
c eliminated:                            8210               29 %  variables
c factored:                                77                0 %  variables
c fast_eliminated:                       8087               99 %  eliminated
c fast_subsumed:                            1                0 %  per subsumed
c propagations:                      32553338          4491254    per second
c reductions:                              15             2751    interval
c reordered:                                3            13753    interval
c restarts:                              5283                8    interval
c strengthened:                           119                0 %  checks
c substituted:                           7058               25 %  variables
c subsumed:                             29694                2 %  checks
c switched:                                 0                0    interval
c vivified:                             12030               18 %  checks
c
c ---- [ glue usage ] --------------------------------------------------------
c
c focused glue 2   used 16187 clauses 30.10% accumulated 63.48% tier1
c focused glue 3   used  5433 clauses 10.10% accumulated 73.58%
c focused glue 4-6 used  6690 clauses 12.44% accumulated 86.01%
c focused glue 7   used  1313 clauses  2.44% accumulated 88.46%
c focused glue 8   used  1087 clauses  2.02% accumulated 90.48% tier2
c
c ---- [ resources ] ---------------------------------------------------------
c
c maximum-resident-set-size:         26251264 bytes         25 MB
c process-time:                             7s               7.25 seconds
c
c ---- [ shutting down ] -----------------------------------------------------
c
c exit 20
